(
(define-fun top () SAE_PACKET (sae_packet_con (seq.++ (seq.unit false) (seq.unit false)) (seq.++ (seq.unit false) (seq.unit false) (seq.unit false) (seq.unit false) (seq.unit false) (seq.unit false))))
)
